\ENCODING=ISO-8859-1
\Problem name: ilog.cplex

Maximize
 obj: 862 x(0)#0 + 623 x(1)#1 + 714 x(2)#2 + 619 x(3)#3 + 1000 x(4)#4
      + 703 x(5)#5 + 953 x(6)#6 + 661 x(7)#7 + 782 x(8)#8 + 653 x(9)#9
      + 587 x(10)#10 + 406 x(11)#11 + 685 x(12)#12 + 450 x(13)#13
      + 829 x(14)#14 + 605 x(15)#15 + 880 x(16)#16 + 861 x(17)#17
      + 784 x(18)#18 + 675 x(19)#19 + 621 x(20)#20 + 819 x(21)#21
      + 515 x(22)#22 + 986 x(23)#23 + 695 x(24)#24 + 781 x(25)#25
      + 506 x(26)#26 + 525 x(27)#27 + 888 x(28)#28 + 492 x(29)#29
      + 707 x(30)#30 + 818 x(31)#31 + 606 x(32)#32 + 857 x(33)#33
      + 1040 x(34)#34 + 716 x(35)#35 + 541 x(36)#36 + 811 x(37)#37
      + 455 x(38)#38 + 623 x(39)#39 + 539 x(40)#40 + 675 x(41)#41
      + 850 x(42)#42 + 733 x(43)#43 + 907 x(44)#44 + 505 x(45)#45
      + 730 x(46)#46 + 875 x(47)#47 + 597 x(48)#48 + 700 x(49)#49
      + 797 x(50)#50 + 1007 x(51)#51 + 781 x(52)#52 + 999 x(53)#53
      + 618 x(54)#54 + 943 x(55)#55 + 852 x(56)#56 + 1106 x(57)#57
      + 919 x(58)#58 + 785 x(59)#59 + 605 x(60)#60 + 916 x(61)#61
      + 849 x(62)#62 + 950 x(63)#63 + 728 x(64)#64 + 854 x(65)#65
      + 608 x(66)#66 + 820 x(67)#67 + 524 x(68)#68 + 838 x(69)#69
      + 724 x(70)#70 + 729 x(71)#71 + 811 x(72)#72 + 759 x(73)#73
      + 1060 x(74)#74 + 513 x(75)#75 + 472 x(76)#76 + 513 x(77)#77
      + 749 x(78)#78 + 832 x(79)#79 + 529 x(80)#80 + 642 x(81)#81
      + 843 x(82)#82 + 755 x(83)#83 + 680 x(84)#84 + 864 x(85)#85
      + 902 x(86)#86 + 484 x(87)#87 + 693 x(88)#88 + 703 x(89)#89
      + 723 x(90)#90 + 998 x(91)#91 + 384 x(92)#92 + 860 x(93)#93
      + 893 x(94)#94 + 840 x(95)#95 + 999 x(96)#96 + 824 x(97)#97
      + 851 x(98)#98 + 628 x(99)#99
Subject To
 c1:  912 x(0)#0 + 419 x(1)#1 + 317 x(2)#2 + 687 x(3)#3 + 330 x(4)#4
      + 579 x(5)#5 + 864 x(6)#6 + 709 x(7)#7 + 771 x(8)#8 + 281 x(9)#9
      + 125 x(10)#10 + 763 x(11)#11 + 459 x(12)#12 + 63 x(13)#13 + 236 x(14)#14
      + 162 x(15)#15 + 153 x(16)#16 + 748 x(17)#17 + 648 x(18)#18
      + 507 x(19)#19 + 122 x(20)#20 + 106 x(21)#21 + 210 x(22)#22
      + 106 x(23)#23 + 108 x(24)#24 + 550 x(25)#25 + 504 x(26)#26 + 11 x(27)#27
      + 721 x(28)#28 + 490 x(29)#29 + 92 x(30)#30 + 30 x(31)#31 + 732 x(32)#32
      + 274 x(33)#33 + 772 x(34)#34 + 777 x(35)#35 + 788 x(36)#36
      + 353 x(37)#37 + 660 x(38)#38 + 418 x(39)#39 + 252 x(40)#40
      + 833 x(41)#41 + 277 x(42)#42 + 401 x(43)#43 + 982 x(44)#44
      + 748 x(45)#45 + 980 x(46)#46 + 999 x(47)#47 + 547 x(48)#48
      + 973 x(49)#49 + 707 x(50)#50 + 777 x(51)#51 + 596 x(52)#52
      + 733 x(53)#53 + 512 x(54)#54 + 755 x(55)#55 + 421 x(56)#56
      + 319 x(57)#57 + 863 x(58)#58 + 285 x(59)#59 + 518 x(60)#60
      + 971 x(61)#61 + 423 x(62)#62 + 741 x(63)#63 + 553 x(64)#64
      + 227 x(65)#65 + 424 x(66)#66 + 410 x(67)#67 + 323 x(68)#68
      + 159 x(69)#69 + 584 x(70)#70 + 212 x(71)#71 + 651 x(72)#72
      + 560 x(73)#73 + 776 x(74)#74 + 204 x(75)#75 + 340 x(76)#76
      + 670 x(77)#77 + 377 x(78)#78 + 248 x(79)#79 + 746 x(80)#80
      + 427 x(81)#81 + 742 x(82)#82 + 483 x(83)#83 + 246 x(84)#84
      + 564 x(85)#85 + 504 x(86)#86 + 149 x(87)#87 + 313 x(88)#88 + 67 x(89)#89
      + 988 x(90)#90 + 247 x(91)#91 + 250 x(92)#92 + 334 x(93)#93
      + 677 x(94)#94 + 109 x(95)#95 + 984 x(96)#96 + 716 x(97)#97
      + 704 x(98)#98 + 306 x(99)#99 <= 12361
 c2:  190 x(0)#0 + 885 x(1)#1 + 692 x(2)#2 + 485 x(3)#3 + 401 x(4)#4
      + 519 x(5)#5 + 909 x(6)#6 + 269 x(7)#7 + 595 x(8)#8 + 936 x(9)#9
      + 397 x(10)#10 + 45 x(11)#11 + 278 x(12)#12 + 54 x(13)#13 + 241 x(14)#14
      + 367 x(15)#15 + 823 x(16)#16 + 496 x(17)#17 + 645 x(18)#18
      + 210 x(19)#19 + 288 x(20)#20 + 131 x(21)#21 + 143 x(22)#22
      + 635 x(23)#23 + 859 x(24)#24 + 539 x(25)#25 + 300 x(26)#26
      + 181 x(27)#27 + 239 x(28)#28 + 656 x(29)#29 + 389 x(30)#30
      + 233 x(31)#31 + 869 x(32)#32 + 740 x(33)#33 + 999 x(34)#34
      + 987 x(35)#35 + 7 x(36)#36 + 629 x(37)#37 + 845 x(38)#38 + 898 x(39)#39
      + 573 x(40)#40 + 967 x(41)#41 + 966 x(42)#42 + 117 x(43)#43
      + 975 x(44)#44 + 431 x(45)#45 + 574 x(46)#46 + 918 x(47)#47 + 2 x(48)#48
      + 976 x(49)#49 + 581 x(50)#50 + 520 x(51)#51 + 82 x(52)#52 + 318 x(53)#53
      + 706 x(54)#54 + 392 x(55)#55 + 979 x(56)#56 + 939 x(57)#57
      + 237 x(58)#58 + 133 x(59)#59 + 304 x(60)#60 + 820 x(61)#61
      + 439 x(62)#62 + 630 x(63)#63 + 760 x(64)#64 + 411 x(65)#65 + 90 x(66)#66
      + 296 x(67)#67 + 508 x(68)#68 + 283 x(69)#69 + 936 x(70)#70
      + 908 x(71)#71 + 481 x(72)#72 + 741 x(73)#73 + 812 x(74)#74
      + 322 x(75)#75 + 277 x(76)#76 + 534 x(77)#77 + 523 x(78)#78
      + 600 x(79)#79 + 140 x(80)#80 + 772 x(81)#81 + 993 x(82)#82
      + 185 x(83)#83 + 808 x(84)#84 + 300 x(85)#85 + 395 x(86)#86
      + 669 x(87)#87 + 929 x(88)#88 + 133 x(89)#89 + 231 x(90)#90
      + 732 x(91)#91 + 2 x(92)#92 + 154 x(93)#93 + 157 x(94)#94 + 987 x(95)#95
      + 184 x(96)#96 + 443 x(97)#97 + 509 x(98)#98 + 114 x(99)#99 <= 12726
 c3:  784 x(0)#0 + 736 x(1)#1 + 573 x(2)#2 + 91 x(3)#3 + 983 x(4)#4
      + 482 x(5)#5 + 929 x(6)#6 + 571 x(7)#7 + 161 x(8)#8 + 41 x(9)#9
      + 449 x(10)#10 + 317 x(11)#11 + 590 x(12)#12 + 901 x(13)#13
      + 360 x(14)#14 + 203 x(15)#15 + 112 x(16)#16 + 686 x(17)#17
      + 882 x(18)#18 + 364 x(19)#19 + 22 x(20)#20 + 970 x(21)#21 + 756 x(22)#22
      + 340 x(23)#23 + 765 x(24)#24 + 538 x(25)#25 + 32 x(26)#26 + 926 x(27)#27
      + 451 x(28)#28 + 627 x(29)#29 + 831 x(30)#30 + 738 x(31)#31
      + 787 x(32)#32 + 181 x(33)#33 + 637 x(34)#34 + 447 x(35)#35
      + 736 x(36)#36 + 965 x(37)#37 + 267 x(38)#38 + 439 x(39)#39
      + 442 x(40)#40 + 35 x(41)#41 + 127 x(42)#42 + 253 x(43)#43 + 89 x(44)#44
      + 699 x(45)#45 + 356 x(46)#46 + 471 x(47)#47 + 252 x(48)#48 + 19 x(49)#49
      + 185 x(50)#50 + 347 x(51)#51 + 184 x(52)#52 + 153 x(53)#53
      + 777 x(54)#54 + 907 x(55)#55 + 26 x(56)#56 + 483 x(57)#57 + 360 x(58)#58
      + 121 x(59)#59 + 27 x(60)#60 + 539 x(61)#61 + 897 x(62)#62 + 592 x(63)#63
      + 310 x(64)#64 + 745 x(65)#65 + 816 x(66)#66 + 952 x(67)#67
      + 778 x(68)#68 + 518 x(69)#69 + 579 x(70)#70 + 559 x(71)#71 + 8 x(72)#72
      + 225 x(73)#73 + 214 x(74)#74 + 32 x(75)#75 + 364 x(76)#76 + 516 x(77)#77
      + 682 x(78)#78 + 637 x(79)#79 + 251 x(80)#80 + 476 x(81)#81
      + 198 x(82)#82 + 468 x(83)#83 + 337 x(84)#84 + 403 x(85)#85
      + 297 x(86)#86 + 51 x(87)#87 + 359 x(88)#88 + 205 x(89)#89 + 389 x(90)#90
      + 682 x(91)#91 + 135 x(92)#92 + 76 x(93)#93 + 43 x(94)#94 + 157 x(95)#95
      + 144 x(96)#96 + 420 x(97)#97 + 981 x(98)#98 + 558 x(99)#99 <= 11144
 c4:  375 x(0)#0 + 486 x(1)#1 + 112 x(2)#2 + 924 x(3)#3 + 819 x(4)#4
      + 797 x(5)#5 + 246 x(6)#6 + 254 x(7)#7 + 63 x(8)#8 + 491 x(9)#9
      + 77 x(10)#10 + 781 x(11)#11 + 278 x(12)#12 + 400 x(13)#13 + 465 x(14)#14
      + 549 x(15)#15 + 856 x(16)#16 + 455 x(17)#17 + 810 x(18)#18
      + 906 x(19)#19 + 110 x(20)#20 + 321 x(21)#21 + 710 x(22)#22
      + 698 x(23)#23 + 383 x(24)#24 + 918 x(25)#25 + 868 x(26)#26
      + 271 x(27)#27 + 992 x(28)#28 + 135 x(29)#29 + 581 x(30)#30
      + 728 x(31)#31 + 246 x(32)#32 + 301 x(33)#33 + 843 x(34)#34
      + 884 x(35)#35 + 372 x(36)#36 + 567 x(37)#37 + 639 x(38)#38 + 30 x(39)#39
      + 290 x(40)#40 + 845 x(41)#41 + 3 x(42)#42 + 807 x(43)#43 + 731 x(44)#44
      + 72 x(45)#45 + 412 x(46)#46 + 391 x(47)#47 + 805 x(48)#48 + 598 x(49)#49
      + 77 x(50)#50 + 505 x(51)#51 + 230 x(52)#52 + 78 x(53)#53 + 796 x(54)#54
      + 769 x(55)#55 + 67 x(56)#56 + 760 x(57)#57 + 701 x(58)#58 + 439 x(59)#59
      + 560 x(60)#60 + 522 x(61)#61 + 480 x(62)#62 + 368 x(63)#63
      + 799 x(64)#64 + 873 x(65)#65 + 316 x(66)#66 + 384 x(67)#67 + x(68)#68
      + 982 x(69)#69 + 456 x(70)#70 + 146 x(71)#71 + 837 x(72)#72
      + 284 x(73)#73 + 957 x(74)#74 + 979 x(75)#75 + 156 x(76)#76
      + 635 x(77)#77 + 573 x(78)#78 + 770 x(79)#79 + 400 x(80)#80
      + 439 x(81)#81 + 122 x(82)#82 + 473 x(83)#83 + 439 x(84)#84
      + 429 x(85)#85 + 534 x(86)#86 + 936 x(87)#87 + 12 x(88)#88 + 82 x(89)#89
      + 670 x(90)#90 + 917 x(91)#91 + 160 x(92)#92 + 540 x(93)#93
      + 958 x(94)#94 + 357 x(95)#95 + 130 x(96)#96 + 669 x(97)#97
      + 802 x(98)#98 + 729 x(99)#99 <= 12748
 c5:  652 x(0)#0 + 962 x(1)#1 + 106 x(2)#2 + 665 x(3)#3 + 185 x(4)#4
      + 64 x(5)#5 + 395 x(6)#6 + 617 x(7)#7 + 631 x(8)#8 + 474 x(9)#9
      + 669 x(10)#10 + 438 x(11)#11 + 385 x(12)#12 + 834 x(13)#13
      + 464 x(14)#14 + 792 x(15)#15 + 66 x(16)#16 + 725 x(17)#17 + 157 x(18)#18
      + 981 x(19)#19 + 120 x(20)#20 + 221 x(21)#21 + 399 x(22)#22
      + 393 x(23)#23 + 406 x(24)#24 + 157 x(25)#25 + 102 x(26)#26
      + 318 x(27)#27 + 256 x(28)#28 + 238 x(29)#29 + 303 x(30)#30
      + 581 x(31)#31 + 804 x(32)#32 + 828 x(33)#33 + 180 x(34)#34 + 90 x(35)#35
      + 37 x(36)#36 + 528 x(37)#37 + 108 x(38)#38 + 473 x(39)#39 + 310 x(40)#40
      + 68 x(41)#41 + 227 x(42)#42 + 892 x(43)#43 + 353 x(44)#44 + 192 x(45)#45
      + 120 x(46)#46 + 271 x(47)#47 + 277 x(48)#48 + 255 x(49)#49 + 81 x(50)#50
      + 897 x(51)#51 + 593 x(52)#52 + 456 x(53)#53 + 7 x(54)#54 + 378 x(55)#55
      + 756 x(56)#56 + 206 x(57)#57 + 185 x(58)#58 + 853 x(59)#59
      + 951 x(60)#60 + 846 x(61)#61 + 616 x(62)#62 + 429 x(63)#63
      + 473 x(64)#64 + 532 x(65)#65 + 847 x(66)#66 + 671 x(67)#67 + 17 x(68)#68
      + 500 x(69)#69 + 313 x(70)#70 + 587 x(71)#71 + 185 x(72)#72
      + 601 x(73)#73 + 728 x(74)#74 + 66 x(75)#75 + 423 x(76)#76 + 704 x(77)#77
      + 138 x(78)#78 + 382 x(79)#79 + 10 x(80)#80 + 402 x(81)#81 + 530 x(82)#82
      + 420 x(83)#83 + 782 x(84)#84 + 156 x(85)#85 + 111 x(86)#86
      + 210 x(87)#87 + 200 x(88)#88 + 918 x(89)#89 + 358 x(90)#90
      + 1000 x(91)#91 + 145 x(92)#92 + 381 x(93)#93 + 272 x(94)#94
      + 889 x(95)#95 + 819 x(96)#96 + 960 x(97)#97 + 227 x(98)#98
      + 630 x(99)#99 <= 10903
 c6:  205 x(0)#0 + 357 x(1)#1 + 794 x(2)#2 + 127 x(3)#3 + 782 x(4)#4
      + 890 x(5)#5 + 996 x(6)#6 + 640 x(7)#7 + 867 x(8)#8 + 115 x(9)#9
      + 61 x(10)#10 + 117 x(11)#11 + 808 x(12)#12 + 558 x(13)#13 + 679 x(14)#14
      + 30 x(15)#15 + 728 x(16)#16 + 8 x(17)#17 + 894 x(18)#18 + 888 x(19)#19
      + 572 x(20)#20 + 229 x(21)#21 + 886 x(22)#22 + 849 x(23)#23
      + 453 x(24)#24 + 442 x(25)#25 + 597 x(26)#26 + 169 x(27)#27
      + 771 x(28)#28 + 939 x(29)#29 + 16 x(30)#30 + 401 x(31)#31 + 369 x(32)#32
      + 27 x(33)#33 + 830 x(34)#34 + 853 x(35)#35 + 471 x(36)#36 + 222 x(37)#37
      + 503 x(38)#38 + 40 x(39)#39 + 413 x(40)#40 + 720 x(41)#41 + 466 x(42)#42
      + 364 x(43)#43 + 519 x(44)#44 + 444 x(45)#45 + 49 x(46)#46 + 879 x(47)#47
      + 157 x(48)#48 + 180 x(49)#49 + 734 x(50)#50 + 932 x(51)#51
      + 544 x(52)#52 + 708 x(53)#53 + 449 x(54)#54 + 390 x(55)#55
      + 948 x(56)#56 + 949 x(57)#57 + 880 x(58)#58 + 69 x(59)#59 + 95 x(60)#60
      + 154 x(61)#61 + 325 x(62)#62 + 926 x(63)#63 + 502 x(64)#64
      + 988 x(65)#65 + 431 x(66)#66 + 652 x(67)#67 + 690 x(68)#68
      + 214 x(69)#69 + 600 x(70)#70 + 897 x(71)#71 + 477 x(72)#72 + 64 x(73)#73
      + 889 x(74)#74 + 139 x(75)#75 + 831 x(76)#76 + 20 x(77)#77 + 576 x(78)#78
      + 398 x(79)#79 + 791 x(80)#80 + 393 x(81)#81 + 268 x(82)#82
      + 293 x(83)#83 + 90 x(84)#84 + 859 x(85)#85 + 303 x(86)#86 + 128 x(87)#87
      + 156 x(88)#88 + 143 x(89)#89 + 441 x(90)#90 + 517 x(91)#91
      + 633 x(92)#92 + 999 x(93)#93 + 611 x(94)#94 + 590 x(95)#95
      + 979 x(96)#96 + 971 x(97)#97 + 634 x(98)#98 + 702 x(99)#99 <= 12837
 c7:  721 x(0)#0 + 721 x(1)#1 + 520 x(2)#2 + 819 x(3)#3 + 932 x(4)#4
      + 10 x(5)#5 + 898 x(6)#6 + 978 x(7)#7 + 737 x(8)#8 + 572 x(9)#9
      + 771 x(10)#10 + 229 x(11)#11 + 501 x(12)#12 + 455 x(13)#13
      + 939 x(14)#14 + 981 x(15)#15 + 723 x(16)#16 + 817 x(17)#17
      + 655 x(18)#18 + 312 x(19)#19 + 63 x(20)#20 + 743 x(21)#21 + 95 x(22)#22
      + 496 x(23)#23 + 528 x(24)#24 + 34 x(25)#25 + 514 x(26)#26 + 522 x(27)#27
      + 168 x(28)#28 + 21 x(29)#29 + 746 x(30)#30 + 841 x(31)#31 + 611 x(32)#32
      + 232 x(33)#33 + 607 x(34)#34 + 158 x(35)#35 + 104 x(36)#36
      + 206 x(37)#37 + 92 x(38)#38 + 616 x(39)#39 + 531 x(40)#40 + 399 x(41)#41
      + 99 x(42)#42 + 219 x(43)#43 + 615 x(44)#44 + 653 x(45)#45 + 913 x(46)#46
      + 362 x(47)#47 + 332 x(48)#48 + 190 x(49)#49 + 290 x(50)#50
      + 860 x(51)#51 + 803 x(52)#52 + 558 x(53)#53 + 691 x(54)#54
      + 888 x(55)#55 + 997 x(56)#56 + 682 x(57)#57 + 249 x(58)#58
      + 824 x(59)#59 + 893 x(60)#60 + 740 x(61)#61 + 797 x(62)#62
      + 503 x(63)#63 + 17 x(64)#64 + 634 x(65)#65 + 156 x(66)#66 + 705 x(67)#67
      + 243 x(68)#68 + 317 x(69)#69 + 32 x(70)#70 + 311 x(71)#71 + 119 x(72)#72
      + 658 x(73)#73 + 600 x(74)#74 + 959 x(75)#75 + 685 x(76)#76
      + 827 x(77)#77 + 391 x(78)#78 + 166 x(79)#79 + 572 x(80)#80
      + 451 x(81)#81 + 176 x(82)#82 + 973 x(83)#83 + 738 x(84)#84
      + 643 x(85)#85 + 805 x(86)#86 + 164 x(87)#87 + 862 x(88)#88
      + 839 x(89)#89 + 986 x(90)#90 + 577 x(91)#91 + 130 x(92)#92
      + 208 x(93)#93 + 388 x(94)#94 + 174 x(95)#95 + 665 x(96)#96
      + 519 x(97)#97 + 504 x(98)#98 + 534 x(99)#99 <= 13126
 c8:  52 x(0)#0 + 95 x(1)#1 + 77 x(2)#2 + 982 x(3)#3 + 708 x(4)#4 + 143 x(5)#5
      + 729 x(6)#6 + 787 x(7)#7 + 647 x(8)#8 + 138 x(9)#9 + 765 x(10)#10
      + 943 x(11)#11 + 243 x(12)#12 + 7 x(13)#13 + 856 x(14)#14 + 59 x(15)#15
      + 684 x(16)#16 + 143 x(17)#17 + 44 x(18)#18 + 387 x(19)#19 + 717 x(20)#20
      + 34 x(21)#21 + 698 x(22)#22 + 605 x(23)#23 + 847 x(24)#24 + 128 x(25)#25
      + 542 x(26)#26 + 775 x(27)#27 + 589 x(28)#28 + 112 x(29)#29
      + 171 x(30)#30 + 387 x(31)#31 + 924 x(32)#32 + 770 x(33)#33 + 84 x(34)#34
      + 836 x(35)#35 + 43 x(36)#36 + 886 x(37)#37 + 55 x(38)#38 + 245 x(39)#39
      + 430 x(40)#40 + 993 x(41)#41 + 530 x(42)#42 + 374 x(43)#43
      + 377 x(44)#44 + 667 x(45)#45 + 59 x(46)#46 + 734 x(47)#47 + 375 x(48)#48
      + 449 x(49)#49 + 513 x(50)#50 + 215 x(51)#51 + 993 x(52)#52
      + 730 x(53)#53 + 316 x(54)#54 + 404 x(55)#55 + 165 x(56)#56
      + 916 x(57)#57 + 621 x(58)#58 + 747 x(59)#59 + 660 x(60)#60
      + 805 x(61)#61 + 324 x(62)#62 + 522 x(63)#63 + 705 x(64)#64
      + 665 x(65)#65 + 637 x(66)#66 + 747 x(67)#67 + 10 x(68)#68 + 782 x(69)#69
      + 562 x(70)#70 + 87 x(71)#71 + 416 x(72)#72 + 120 x(73)#73 + 608 x(74)#74
      + 267 x(75)#75 + 151 x(76)#76 + 638 x(77)#77 + 89 x(78)#78 + 358 x(79)#79
      + 5 x(80)#80 + 737 x(81)#81 + 812 x(82)#82 + 430 x(83)#83 + 962 x(84)#84
      + 256 x(85)#85 + 342 x(86)#86 + 518 x(87)#87 + 427 x(88)#88
      + 309 x(89)#89 + 174 x(90)#90 + 424 x(91)#91 + 286 x(92)#92
      + 156 x(93)#93 + 244 x(94)#94 + 401 x(95)#95 + 701 x(96)#96
      + 113 x(97)#97 + 888 x(98)#98 + 641 x(99)#99 <= 11631
 c9:  731 x(0)#0 + 895 x(1)#1 + 578 x(2)#2 + 807 x(3)#3 + 375 x(4)#4
      + 32 x(5)#5 + 716 x(6)#6 + 951 x(7)#7 + 740 x(8)#8 + 600 x(9)#9
      + 201 x(10)#10 + 35 x(11)#11 + 452 x(12)#12 + 40 x(13)#13 + 572 x(14)#14
      + 642 x(15)#15 + 200 x(16)#16 + 179 x(17)#17 + 929 x(18)#18
      + 162 x(19)#19 + 897 x(20)#20 + 594 x(21)#21 + 324 x(22)#22
      + 735 x(23)#23 + 483 x(24)#24 + 664 x(25)#25 + 323 x(26)#26 + x(27)#27
      + 135 x(28)#28 + 236 x(29)#29 + 180 x(30)#30 + 575 x(31)#31
      + 236 x(32)#32 + 226 x(33)#33 + 78 x(34)#34 + 414 x(35)#35 + 602 x(36)#36
      + 257 x(37)#37 + 841 x(38)#38 + 184 x(39)#39 + 463 x(40)#40 + 98 x(41)#41
      + 996 x(42)#42 + 308 x(43)#43 + 822 x(44)#44 + 333 x(45)#45
      + 922 x(46)#46 + 817 x(47)#47 + 587 x(48)#48 + 932 x(49)#49
      + 412 x(50)#50 + 298 x(51)#51 + 831 x(52)#52 + 844 x(53)#53
      + 149 x(54)#54 + 968 x(55)#55 + 803 x(56)#56 + 686 x(57)#57
      + 368 x(58)#58 + 203 x(59)#59 + 687 x(60)#60 + 474 x(61)#61
      + 658 x(62)#62 + 966 x(63)#63 + 559 x(64)#64 + 406 x(65)#65
      + 919 x(66)#66 + 821 x(67)#67 + 10 x(68)#68 + 642 x(69)#69 + 461 x(70)#70
      + 551 x(71)#71 + 178 x(72)#72 + 843 x(73)#73 + 954 x(74)#74
      + 235 x(75)#75 + 138 x(76)#76 + 217 x(77)#77 + 486 x(78)#78 + 52 x(79)#79
      + 612 x(80)#80 + 346 x(81)#81 + 168 x(82)#82 + 629 x(83)#83
      + 870 x(84)#84 + 378 x(85)#85 + 530 x(86)#86 + 235 x(87)#87
      + 175 x(88)#88 + 56 x(89)#89 + 300 x(90)#90 + 701 x(91)#91 + 493 x(92)#92
      + 746 x(93)#93 + 962 x(94)#94 + 516 x(95)#95 + 340 x(96)#96
      + 236 x(97)#97 + 604 x(98)#98 + 218 x(99)#99 <= 12259
 c10: 269 x(0)#0 + 51 x(1)#1 + 785 x(2)#2 + 460 x(3)#3 + 45 x(4)#4 + 484 x(5)#5
      + 434 x(6)#6 + 311 x(7)#7 + 113 x(8)#8 + 771 x(9)#9 + 920 x(10)#10
      + 267 x(11)#11 + 298 x(12)#12 + 725 x(13)#13 + 293 x(14)#14
      + 298 x(15)#15 + 412 x(16)#16 + 372 x(17)#17 + 307 x(18)#18
      + 776 x(19)#19 + 758 x(20)#20 + 470 x(21)#21 + 687 x(22)#22
      + 328 x(23)#23 + 609 x(24)#24 + 596 x(25)#25 + 995 x(26)#26
      + 130 x(27)#27 + 753 x(28)#28 + 987 x(29)#29 + 518 x(30)#30 + 6 x(31)#31
      + 205 x(32)#32 + 901 x(33)#33 + 588 x(34)#34 + 215 x(35)#35 + 62 x(36)#36
      + 69 x(37)#37 + 446 x(38)#38 + 775 x(39)#39 + 681 x(40)#40 + 628 x(41)#41
      + 375 x(42)#42 + 743 x(43)#43 + 741 x(44)#44 + 470 x(45)#45
      + 227 x(46)#46 + 731 x(47)#47 + 475 x(48)#48 + 251 x(49)#49
      + 351 x(50)#50 + 191 x(51)#51 + 392 x(52)#52 + 559 x(53)#53
      + 977 x(54)#54 + 732 x(55)#55 + 548 x(56)#56 + 513 x(57)#57
      + 158 x(58)#58 + 464 x(59)#59 + 583 x(60)#60 + 260 x(61)#61
      + 389 x(62)#62 + 329 x(63)#63 + 97 x(64)#64 + 391 x(65)#65 + 839 x(66)#66
      + 944 x(67)#67 + 535 x(68)#68 + 44 x(69)#69 + 643 x(70)#70 + 613 x(71)#71
      + 932 x(72)#72 + 739 x(73)#73 + 268 x(74)#74 + 582 x(75)#75
      + 645 x(76)#76 + 220 x(77)#77 + 521 x(78)#78 + 23 x(79)#79 + 370 x(80)#80
      + 455 x(81)#81 + 567 x(82)#82 + 904 x(83)#83 + 381 x(84)#84
      + 891 x(85)#85 + 497 x(86)#86 + 233 x(87)#87 + 44 x(88)#88 + 840 x(89)#89
      + 347 x(90)#90 + 374 x(91)#91 + 919 x(92)#92 + 894 x(93)#93
      + 897 x(94)#94 + 771 x(95)#95 + 681 x(96)#96 + 274 x(97)#97
      + 842 x(98)#98 + 134 x(99)#99 <= 12402
Bounds
 0 <= x(0)#0 <= 1
 0 <= x(1)#1 <= 1
 0 <= x(2)#2 <= 1
 0 <= x(3)#3 <= 1
 0 <= x(4)#4 <= 1
 0 <= x(5)#5 <= 1
 0 <= x(6)#6 <= 1
 0 <= x(7)#7 <= 1
 0 <= x(8)#8 <= 1
 0 <= x(9)#9 <= 1
 0 <= x(10)#10 <= 1
 0 <= x(11)#11 <= 1
 0 <= x(12)#12 <= 1
 0 <= x(13)#13 <= 1
 0 <= x(14)#14 <= 1
 0 <= x(15)#15 <= 1
 0 <= x(16)#16 <= 1
 0 <= x(17)#17 <= 1
 0 <= x(18)#18 <= 1
 0 <= x(19)#19 <= 1
 0 <= x(20)#20 <= 1
 0 <= x(21)#21 <= 1
 0 <= x(22)#22 <= 1
 0 <= x(23)#23 <= 1
 0 <= x(24)#24 <= 1
 0 <= x(25)#25 <= 1
 0 <= x(26)#26 <= 1
 0 <= x(27)#27 <= 1
 0 <= x(28)#28 <= 1
 0 <= x(29)#29 <= 1
 0 <= x(30)#30 <= 1
 0 <= x(31)#31 <= 1
 0 <= x(32)#32 <= 1
 0 <= x(33)#33 <= 1
 0 <= x(34)#34 <= 1
 0 <= x(35)#35 <= 1
 0 <= x(36)#36 <= 1
 0 <= x(37)#37 <= 1
 0 <= x(38)#38 <= 1
 0 <= x(39)#39 <= 1
 0 <= x(40)#40 <= 1
 0 <= x(41)#41 <= 1
 0 <= x(42)#42 <= 1
 0 <= x(43)#43 <= 1
 0 <= x(44)#44 <= 1
 0 <= x(45)#45 <= 1
 0 <= x(46)#46 <= 1
 0 <= x(47)#47 <= 1
 0 <= x(48)#48 <= 1
 0 <= x(49)#49 <= 1
 0 <= x(50)#50 <= 1
 0 <= x(51)#51 <= 1
 0 <= x(52)#52 <= 1
 0 <= x(53)#53 <= 1
 0 <= x(54)#54 <= 1
 0 <= x(55)#55 <= 1
 0 <= x(56)#56 <= 1
 0 <= x(57)#57 <= 1
 0 <= x(58)#58 <= 1
 0 <= x(59)#59 <= 1
 0 <= x(60)#60 <= 1
 0 <= x(61)#61 <= 1
 0 <= x(62)#62 <= 1
 0 <= x(63)#63 <= 1
 0 <= x(64)#64 <= 1
 0 <= x(65)#65 <= 1
 0 <= x(66)#66 <= 1
 0 <= x(67)#67 <= 1
 0 <= x(68)#68 <= 1
 0 <= x(69)#69 <= 1
 0 <= x(70)#70 <= 1
 0 <= x(71)#71 <= 1
 0 <= x(72)#72 <= 1
 0 <= x(73)#73 <= 1
 0 <= x(74)#74 <= 1
 0 <= x(75)#75 <= 1
 0 <= x(76)#76 <= 1
 0 <= x(77)#77 <= 1
 0 <= x(78)#78 <= 1
 0 <= x(79)#79 <= 1
 0 <= x(80)#80 <= 1
 0 <= x(81)#81 <= 1
 0 <= x(82)#82 <= 1
 0 <= x(83)#83 <= 1
 0 <= x(84)#84 <= 1
 0 <= x(85)#85 <= 1
 0 <= x(86)#86 <= 1
 0 <= x(87)#87 <= 1
 0 <= x(88)#88 <= 1
 0 <= x(89)#89 <= 1
 0 <= x(90)#90 <= 1
 0 <= x(91)#91 <= 1
 0 <= x(92)#92 <= 1
 0 <= x(93)#93 <= 1
 0 <= x(94)#94 <= 1
 0 <= x(95)#95 <= 1
 0 <= x(96)#96 <= 1
 0 <= x(97)#97 <= 1
 0 <= x(98)#98 <= 1
 0 <= x(99)#99 <= 1
Generals
 x(0)#0  x(1)#1  x(2)#2  x(3)#3  x(4)#4  x(5)#5  x(6)#6  x(7)#7  x(8)#8 
 x(9)#9  x(10)#10  x(11)#11  x(12)#12  x(13)#13  x(14)#14  x(15)#15  x(16)#16 
 x(17)#17  x(18)#18  x(19)#19  x(20)#20  x(21)#21  x(22)#22  x(23)#23 
 x(24)#24  x(25)#25  x(26)#26  x(27)#27  x(28)#28  x(29)#29  x(30)#30 
 x(31)#31  x(32)#32  x(33)#33  x(34)#34  x(35)#35  x(36)#36  x(37)#37 
 x(38)#38  x(39)#39  x(40)#40  x(41)#41  x(42)#42  x(43)#43  x(44)#44 
 x(45)#45  x(46)#46  x(47)#47  x(48)#48  x(49)#49  x(50)#50  x(51)#51 
 x(52)#52  x(53)#53  x(54)#54  x(55)#55  x(56)#56  x(57)#57  x(58)#58 
 x(59)#59  x(60)#60  x(61)#61  x(62)#62  x(63)#63  x(64)#64  x(65)#65 
 x(66)#66  x(67)#67  x(68)#68  x(69)#69  x(70)#70  x(71)#71  x(72)#72 
 x(73)#73  x(74)#74  x(75)#75  x(76)#76  x(77)#77  x(78)#78  x(79)#79 
 x(80)#80  x(81)#81  x(82)#82  x(83)#83  x(84)#84  x(85)#85  x(86)#86 
 x(87)#87  x(88)#88  x(89)#89  x(90)#90  x(91)#91  x(92)#92  x(93)#93 
 x(94)#94  x(95)#95  x(96)#96  x(97)#97  x(98)#98  x(99)#99 
End
